; benchmark generated from python API
(set-info :status unknown)
(declare-fun DISJ_W_S2_R_S1 () Bool)
(declare-fun W_S2_V3 () Bool)
(declare-fun W_S1_V5 () Bool)
(declare-fun R_S2_V4 () Bool)
(declare-fun W_S2_V5 () Bool)
(declare-fun DISJ_W_S1_W_S2 () Bool)
(declare-fun W_S1_V4 () Bool)
(declare-fun R_S2_V3 () Bool)
(declare-fun W_S2_V2 () Bool)
(declare-fun W_S2_V1 () Bool)
(declare-fun DISJ_W_S1_R_S2 () Bool)
(declare-fun DISJ_W_S2_R_S2 () Bool)
(declare-fun R_E1_V4 () Bool)
(declare-fun R_E1_V5 () Bool)
(declare-fun R_S2_V5 () Bool)
(declare-fun R_S2_V2 () Bool)
(declare-fun R_S2_V1 () Bool)
(declare-fun R_S1_V4 () Bool)
(declare-fun R_S1_V5 () Bool)
(declare-fun R_S1_V2 () Bool)
(declare-fun R_S1_V3 () Bool)
(declare-fun R_S1_V1 () Bool)
(declare-fun R_E1_V2 () Bool)
(declare-fun DISJ_W_S2_R_E1 () Bool)
(declare-fun R_E1_V3 () Bool)
(declare-fun DISJ_W_S1_R_S1 () Bool)
(declare-fun W_S2_V4 () Bool)
(declare-fun W_S1_V3 () Bool)
(declare-fun W_S1_V2 () Bool)
(declare-fun W_S1_V1 () Bool)
(declare-fun R_E1_V1 () Bool)
(declare-fun DISJ_W_S1_R_E1 () Bool)
(assert
 (let (($x496 (not (and (not R_S2_V4) (not W_S1_V5) (not W_S2_V3) DISJ_W_S2_R_S1))))
 (let (($x4616 (not (and (not R_S2_V4) (not W_S2_V5) (not W_S2_V3) DISJ_W_S2_R_S1))))
 (let (($x3431 (not (and DISJ_W_S1_W_S2 DISJ_W_S2_R_S1))))
 (let (($x243 (not (and (not R_S2_V3) (not W_S1_V4) (not W_S2_V5) DISJ_W_S2_R_S1))))
 (let (($x2431 (not W_S2_V2)))
 (let (($x2856 (not W_S2_V1)))
 (let (($x937 (and $x2856 $x2431)))
 (let (($x1284 (not $x937)))
 (let (($x3944 (not (and (not R_S2_V3) (not R_S2_V4) (not W_S2_V5) DISJ_W_S2_R_S1))))
 (let (($x602 (not (and DISJ_W_S1_R_S2 DISJ_W_S2_R_S1))))
 (let (($x5462 (not (and $x2431 DISJ_W_S2_R_S2))))
 (let (($x1254 (not (and DISJ_W_S2_R_S1 DISJ_W_S2_R_S2))))
 (let (($x5925 (not (and W_S1_V4 R_E1_V4))))
 (let (($x4832 (not (and W_S1_V5 R_E1_V5))))
 (let (($x1723 (forall ((V3_0 Int) )(forall ((V2_0 Int) )(forall ((V5_0 Int) )(forall ((V4_0 Int) )(forall ((MW_S1_V1 Bool) )(forall ((MW_S1_V3 Bool) )(forall ((MW_S1_V2 Bool) )(forall ((MW_S1_V5 Bool) )(forall ((MW_S1_V4 Bool) )(forall ((MW_S2_V1 Bool) )(forall ((MW_S2_V3 Bool) )(forall ((MW_S2_V2 Bool) )(forall ((MW_S2_V5 Bool) )(forall ((MW_S2_V4 Bool) )(forall ((S1_V1_!2447 Int) )(forall ((S1_V1_!2457 Int) )(forall ((S1_V1_!2468 Int) )(forall ((S2_V5_!2455 Int) )(forall ((S2_V5_!2465 Int) )(forall ((S2_V5_!2477 Int) )(forall ((S2_V5_!2482 Int) )(forall ((S1_V3_!2448 Int) )(forall ((S1_V3_!2458 Int) )(forall ((S1_V3_!2469 Int) )(forall ((S1_V2_!2449 Int) )(forall ((S1_V2_!2459 Int) )(forall ((S1_V2_!2470 Int) )(forall ((E1_!2446 Int) )(forall ((E1_!2467 Int) )(forall ((E1_!2473 Int) )(forall ((S2_V4_!2456 Int) )(forall ((S2_V4_!2466 Int) )(forall ((S2_V4_!2478 Int) )(forall ((S2_V4_!2483 Int) )(forall ((S1_V5_!2450 Int) )(forall ((S1_V5_!2460 Int) )(forall ((S1_V5_!2471 Int) )(forall ((S2_V1_!2452 Int) )(forall ((S2_V1_!2462 Int) )(forall ((S2_V1_!2474 Int) )(forall ((S2_V1_!2479 Int) )(forall ((S1_V4_!2451 Int) )(forall ((S1_V4_!2461 Int) )(forall ((S1_V4_!2472 Int) )(forall ((S2_V2_!2454 Int) )(forall ((S2_V2_!2464 Int) )(forall ((S2_V2_!2476 Int) )(forall ((S2_V2_!2481 Int) )(forall ((S2_V3_!2453 Int) )(forall ((S2_V3_!2463 Int) )(forall ((S2_V3_!2475 Int) )(forall ((S2_V3_!2480 Int) )(let (($x2871 (= (ite MW_S2_V4 S2_V4_!2466 (ite MW_S1_V4 S1_V4_!2461 (ite MW_S2_V4 S2_V4_!2456 (ite MW_S1_V4 S1_V4_!2451 V4_0)))) (ite MW_S2_V4 S2_V4_!2483 (ite MW_S1_V4 S1_V4_!2472 V4_0)))))
 (let (($x1706 (= (ite MW_S2_V5 S2_V5_!2465 (ite MW_S1_V5 S1_V5_!2460 (ite MW_S2_V5 S2_V5_!2455 (ite MW_S1_V5 S1_V5_!2450 V5_0)))) (ite MW_S2_V5 S2_V5_!2482 (ite MW_S1_V5 S1_V5_!2471 V5_0)))))
 (let ((?x1059 (ite MW_S1_V2 S1_V2_!2470 V2_0)))
 (let ((?x1118 (ite MW_S2_V2 S2_V2_!2481 ?x1059)))
 (let ((?x2385 (ite MW_S1_V2 S1_V2_!2449 V2_0)))
 (let ((?x5511 (ite MW_S2_V2 S2_V2_!2454 ?x2385)))
 (let ((?x2045 (ite MW_S1_V2 S1_V2_!2459 ?x5511)))
 (let ((?x2579 (ite MW_S2_V2 S2_V2_!2464 ?x2045)))
 (let (($x3569 (= (ite MW_S2_V3 S2_V3_!2463 (ite MW_S1_V3 S1_V3_!2458 (ite MW_S2_V3 S2_V3_!2453 (ite MW_S1_V3 S1_V3_!2448 V3_0)))) (ite MW_S2_V3 S2_V3_!2480 (ite MW_S1_V3 S1_V3_!2469 V3_0)))))
 (let ((?x1144 (ite MW_S2_V1 S2_V1_!2474 E1_!2473)))
 (let ((?x3130 (+ 1 ?x1144)))
 (let ((?x2155 (ite MW_S2_V1 S2_V1_!2479 ?x3130)))
 (let ((?x1994 (ite MW_S1_V1 S1_V1_!2447 E1_!2446)))
 (let ((?x584 (ite MW_S2_V1 S2_V1_!2452 ?x1994)))
 (let ((?x828 (+ 1 ?x584)))
 (let ((?x1394 (ite MW_S1_V1 S1_V1_!2457 ?x828)))
 (let ((?x5104 (ite MW_S2_V1 S2_V1_!2462 ?x1394)))
 (let (($x1252 (and (not (<= V2_0 E1_!2446)) (not (<= ?x5511 ?x828)) (>= ?x5104 (+ (- 1) ?x2579)) (not (<= V2_0 E1_!2467)) (>= (ite MW_S1_V1 S1_V1_!2468 E1_!2467) (+ (- 1) ?x1059)) (not (<= ?x1059 E1_!2473)) (not (<= (ite MW_S2_V2 S2_V2_!2476 ?x1059) ?x3130)) (>= ?x2155 (+ (- 1) ?x1118)))))
 (let (($x3264 (= S2_V3_!2475 S2_V3_!2480)))
 (let (($x5767 (not R_S2_V4)))
 (let (($x5175 (or $x5767 (= (ite MW_S1_V4 S1_V4_!2472 V4_0) (ite MW_S2_V4 S2_V4_!2478 (ite MW_S1_V4 S1_V4_!2472 V4_0))))))
 (let (($x5416 (not R_S2_V5)))
 (let (($x1494 (or $x5416 (= (ite MW_S1_V5 S1_V5_!2471 V5_0) (ite MW_S2_V5 S2_V5_!2477 (ite MW_S1_V5 S1_V5_!2471 V5_0))))))
 (let (($x885 (not R_S2_V3)))
 (let (($x2933 (or $x885 (= (ite MW_S1_V3 S1_V3_!2469 V3_0) (ite MW_S2_V3 S2_V3_!2475 (ite MW_S1_V3 S1_V3_!2469 V3_0))))))
 (let (($x5847 (and (or (not R_S2_V1) (= E1_!2473 ?x3130)) $x2933 (or (not R_S2_V2) (= ?x1059 (ite MW_S2_V2 S2_V2_!2476 ?x1059))) $x1494 $x5175)))
 (let (($x1950 (not $x5847)))
 (let (($x821 (= S2_V3_!2475 S2_V3_!2463)))
 (let ((?x3223 (ite MW_S1_V4 S1_V4_!2451 V4_0)))
 (let ((?x2035 (ite MW_S2_V4 S2_V4_!2456 ?x3223)))
 (let ((?x2009 (ite MW_S1_V4 S1_V4_!2461 ?x2035)))
 (let ((?x2369 (ite MW_S1_V4 S1_V4_!2472 V4_0)))
 (let ((?x1717 (ite MW_S1_V5 S1_V5_!2450 V5_0)))
 (let ((?x3413 (ite MW_S2_V5 S2_V5_!2455 ?x1717)))
 (let ((?x22 (ite MW_S1_V5 S1_V5_!2460 ?x3413)))
 (let ((?x1575 (ite MW_S1_V5 S1_V5_!2471 V5_0)))
 (let ((?x2211 (ite MW_S1_V3 S1_V3_!2448 V3_0)))
 (let ((?x6033 (ite MW_S2_V3 S2_V3_!2453 ?x2211)))
 (let ((?x795 (ite MW_S1_V3 S1_V3_!2458 ?x6033)))
 (let ((?x3414 (ite MW_S1_V3 S1_V3_!2469 V3_0)))
 (let (($x454 (and (or (not R_S2_V1) (= E1_!2473 ?x1394)) (or $x885 (= ?x3414 ?x795)) (or (not R_S2_V2) (= ?x1059 ?x2045)) (or $x5416 (= ?x1575 ?x22)) (or $x5767 (= ?x2369 ?x2009)))))
 (let (($x2672 (not $x454)))
 (let (($x1803 (= S2_V3_!2475 S2_V3_!2453)))
 (let (($x5542 (and (or (not R_S2_V1) (= E1_!2473 ?x1994)) (or $x885 (= ?x3414 ?x2211)) (or (not R_S2_V2) (= ?x1059 ?x2385)) (or $x5416 (= ?x1575 ?x1717)) (or $x5767 (= ?x2369 ?x3223)))))
 (let (($x5856 (not $x5542)))
 (let (($x72 (= S2_V3_!2463 S2_V3_!2480)))
 (let (($x4856 (and (or (not R_S2_V1) (= ?x1394 ?x3130)) (or $x885 (= ?x795 (ite MW_S2_V3 S2_V3_!2475 ?x3414))) (or (not R_S2_V2) (= ?x2045 (ite MW_S2_V2 S2_V2_!2476 ?x1059))) (or $x5416 (= ?x22 (ite MW_S2_V5 S2_V5_!2477 ?x1575))) (or $x5767 (= ?x2009 (ite MW_S2_V4 S2_V4_!2478 ?x2369))))))
 (let (($x1596 (not $x4856)))
 (let (($x3585 (= S2_V3_!2463 S2_V3_!2453)))
 (let (($x4639 (and (or (not R_S2_V1) (= ?x1394 ?x1994)) (or $x885 (= ?x795 ?x2211)) (or (not R_S2_V2) (= ?x2045 ?x2385)) (or $x5416 (= ?x22 ?x1717)) (or $x5767 (= ?x2009 ?x3223)))))
 (let (($x556 (not $x4639)))
 (let (($x2151 (= S2_V3_!2453 S2_V3_!2480)))
 (let (($x734 (and (or (not R_S2_V1) (= ?x1994 ?x3130)) (or $x885 (= ?x2211 (ite MW_S2_V3 S2_V3_!2475 ?x3414))) (or (not R_S2_V2) (= ?x2385 (ite MW_S2_V2 S2_V2_!2476 ?x1059))) (or $x5416 (= ?x1717 (ite MW_S2_V5 S2_V5_!2477 ?x1575))) (or $x5767 (= ?x3223 (ite MW_S2_V4 S2_V4_!2478 ?x2369))))))
 (let (($x1934 (not $x734)))
 (let (($x5744 (= S2_V2_!2481 S2_V2_!2476)))
 (let (($x2424 (and (or (not R_S2_V1) (= ?x1144 (+ (- 1) E1_!2473))) (or $x885 (= (ite MW_S2_V3 S2_V3_!2475 ?x3414) ?x3414)) (or (not R_S2_V2) (= (ite MW_S2_V2 S2_V2_!2476 ?x1059) ?x1059)) (or $x5416 (= (ite MW_S2_V5 S2_V5_!2477 ?x1575) ?x1575)) (or $x5767 (= (ite MW_S2_V4 S2_V4_!2478 ?x2369) ?x2369)))))
 (let (($x575 (not $x2424)))
 (let (($x2129 (= S2_V2_!2481 S2_V2_!2464)))
 (let (($x4823 (and (or (not R_S2_V1) (= ?x1144 (+ (- 1) ?x1394))) (or $x885 (= (ite MW_S2_V3 S2_V3_!2475 ?x3414) ?x795)) (or (not R_S2_V2) (= (ite MW_S2_V2 S2_V2_!2476 ?x1059) ?x2045)) (or $x5416 (= (ite MW_S2_V5 S2_V5_!2477 ?x1575) ?x22)) (or $x5767 (= (ite MW_S2_V4 S2_V4_!2478 ?x2369) ?x2009)))))
 (let (($x1329 (= S2_V2_!2464 S2_V2_!2476)))
 (let (($x1754 (and (or (not R_S2_V1) (= ?x1394 E1_!2473)) (or $x885 (= ?x795 ?x3414)) (or (not R_S2_V2) (= ?x2045 ?x1059)) (or $x5416 (= ?x22 ?x1575)) (or $x5767 (= ?x2009 ?x2369)))))
 (let (($x273 (not $x1754)))
 (let (($x5099 (= S2_V2_!2454 S2_V2_!2476)))
 (let (($x3050 (and (or (not R_S2_V1) (= ?x1994 E1_!2473)) (or $x885 (= ?x2211 ?x3414)) (or (not R_S2_V2) (= ?x2385 ?x1059)) (or $x5416 (= ?x1717 ?x1575)) (or $x5767 (= ?x3223 ?x2369)))))
 (let (($x2310 (not $x3050)))
 (let (($x3390 (= S2_V2_!2454 S2_V2_!2464)))
 (let (($x630 (and (or (not R_S2_V1) (= ?x1994 ?x1394)) (or $x885 (= ?x2211 ?x795)) (or (not R_S2_V2) (= ?x2385 ?x2045)) (or $x5416 (= ?x1717 ?x22)) (or $x5767 (= ?x3223 ?x2009)))))
 (let (($x4925 (not $x630)))
 (let (($x3483 (= S1_V4_!2472 S1_V4_!2461)))
 (let (($x1354 (not R_S1_V4)))
 (let (($x1451 (or $x1354 (= V4_0 ?x2035))))
 (let (($x1155 (not R_S1_V5)))
 (let (($x2499 (or $x1155 (= V5_0 ?x3413))))
 (let (($x2618 (not R_S1_V2)))
 (let (($x2197 (or $x2618 (= V2_0 ?x5511))))
 (let (($x1654 (not R_S1_V3)))
 (let (($x2236 (or $x1654 (= V3_0 ?x6033))))
 (let (($x2204 (not (and (or (not R_S1_V1) (= E1_!2467 ?x828)) $x2236 $x2197 $x2499 $x1451))))
 (let (($x3433 (not (and (or (not R_S1_V1) (= E1_!2446 ?x828)) $x2236 $x2197 $x2499 $x1451))))
 (let (($x2741 (and (or (not R_S2_V1) (= ?x1144 (+ (- 1) ?x1994))) (or $x885 (= (ite MW_S2_V3 S2_V3_!2475 ?x3414) ?x2211)) (or (not R_S2_V2) (= (ite MW_S2_V2 S2_V2_!2476 ?x1059) ?x2385)) (or $x5416 (= (ite MW_S2_V5 S2_V5_!2477 ?x1575) ?x1717)) (or $x5767 (= (ite MW_S2_V4 S2_V4_!2478 ?x2369) ?x3223)))))
 (let (($x3172 (and (or (not R_E1_V2) (= V2_0 ?x1059)) (or (not R_E1_V5) (= V5_0 ?x1575)) (or (not R_E1_V4) (= V4_0 ?x2369)))))
 (let (($x3516 (not $x3172)))
 (let (($x1273 (= E1_!2467 E1_!2446)))
 (let (($x4996 (or $x1354 (= ?x2035 V4_0))))
 (let (($x3361 (or $x1155 (= ?x3413 V5_0))))
 (let (($x5960 (or $x2618 (= ?x5511 V2_0))))
 (let (($x2595 (or $x1654 (= ?x6033 V3_0))))
 (let (($x5712 (and (or (not R_S1_V1) (= ?x584 (+ (- 1) E1_!2467))) $x2595 $x5960 $x3361 $x4996)))
 (let (($x4822 (not $x5712)))
 (let (($x1612 (= S1_V2_!2459 S1_V2_!2449)))
 (let (($x768 (and (or (not R_S1_V1) (= ?x584 (+ (- 1) E1_!2446))) $x2595 $x5960 $x3361 $x4996)))
 (let (($x2338 (not $x768)))
 (let (($x6035 (and (or $x2338 (= S1_V1_!2457 S1_V1_!2447)) (or (not (or (not R_S1_V1) $x1273)) (= S1_V1_!2468 S1_V1_!2447)) (or $x2204 (= S1_V1_!2468 S1_V1_!2457)) (or $x4925 (= S2_V5_!2455 S2_V5_!2465)) (or $x2310 (= S2_V5_!2455 S2_V5_!2477)) (or $x1934 (= S2_V5_!2455 S2_V5_!2482)) (or $x273 (= S2_V5_!2465 S2_V5_!2477)) (or $x1596 (= S2_V5_!2465 S2_V5_!2482)) (or $x575 (= S2_V5_!2482 S2_V5_!2477)) (or $x2338 (= S1_V3_!2458 S1_V3_!2448)) (or $x4822 (= S1_V3_!2458 S1_V3_!2469)) (or (not (or (not R_S1_V1) $x1273)) (= S1_V3_!2469 S1_V3_!2448)) (or $x2338 $x1612) (or $x4822 (= S1_V2_!2459 S1_V2_!2470)) (or (not (or (not R_S1_V1) $x1273)) (= S1_V2_!2470 S1_V2_!2449)) (or $x3516 (= E1_!2446 E1_!2473)) $x1273 (or $x3516 (= E1_!2467 E1_!2473)) (or $x556 (= S2_V4_!2466 S2_V4_!2456)) (or $x273 (= S2_V4_!2466 S2_V4_!2478)) (or $x1596 (= S2_V4_!2466 S2_V4_!2483)) (or $x5856 (= S2_V4_!2478 S2_V4_!2456)) (or $x1950 (= S2_V4_!2478 S2_V4_!2483)) (or (not $x2741) (= S2_V4_!2483 S2_V4_!2456)) (or $x3433 (= S1_V5_!2450 S1_V5_!2460)) (or (not (or (not R_S1_V1) $x1273)) (= S1_V5_!2471 S1_V5_!2450)) (or $x2204 (= S1_V5_!2471 S1_V5_!2460)) (or $x1934 (= S2_V1_!2452 S2_V1_!2479)) (or $x556 (= S2_V1_!2462 S2_V1_!2452)) (or $x1596 (= S2_V1_!2462 S2_V1_!2479)) (or $x5856 (= S2_V1_!2474 S2_V1_!2452)) (or $x2672 (= S2_V1_!2474 S2_V1_!2462)) (or $x1950 (= S2_V1_!2474 S2_V1_!2479)) (or $x3433 (= S1_V4_!2451 S1_V4_!2461)) (or (not (or (not R_S1_V1) (= E1_!2446 E1_!2467))) (= S1_V4_!2451 S1_V4_!2472)) (or $x2204 $x3483) (or $x4925 $x3390) (or $x2310 $x5099) (or $x1934 (= S2_V2_!2454 S2_V2_!2481)) (or $x273 $x1329) (or (not $x4823) $x2129) (or $x575 $x5744) (or $x1934 $x2151) (or $x556 $x3585) (or $x1596 $x72) (or $x5856 $x1803) (or $x2672 $x821) (or $x1950 $x3264) (not MW_S1_V1) (not MW_S1_V2) (or (not MW_S1_V5) W_S1_V5) (or (not MW_S1_V4) W_S1_V4) (or (not MW_S2_V1) W_S2_V1) (or (not MW_S2_V3) W_S2_V3) (or (not MW_S2_V2) W_S2_V2) (or (not MW_S2_V5) W_S2_V5))))
 (or (not $x6035) (not $x1252) (and (= ?x5104 ?x2155) $x3569 (= ?x2579 ?x1118) $x1706 $x2871))))))))))))))))))))))))))))))))))))))))))))))))))))))))))))))))))))))))))))))))))))))))))))))))
 )
 )
 )
 )
 )
 )
 )
 )
 )
 )
 )
 )
 )
 )
 )
 )
 )
 )
 )
 )
 )
 )
 )
 )
 )
 )
 )
 )
 )
 )
 )
 )
 )
 )
 )
 )
 )
 )
 )
 )
 )
 )
 )
 )
 )
 )
 )
 )
 )
 )
 )
 ))
 (let (($x313 (not (or (and W_S2_V2 R_E1_V2) (and W_S2_V5 R_E1_V5) R_E1_V4))))
 (let (($x3296 (= DISJ_W_S2_R_E1 $x313)))
 (let (($x215 (and W_S2_V5 R_S2_V5)))
 (let (($x1127 (and W_S2_V2 R_S2_V2)))
 (let (($x2210 (and W_S2_V3 R_S2_V3)))
 (let (($x1946 (and W_S2_V1 R_S2_V1)))
 (let (($x4661 (= DISJ_W_S2_R_S2 (not (or $x1946 $x2210 $x1127 $x215 R_S2_V4)))))
 (let (($x3007 (and W_S2_V5 R_S1_V5)))
 (let (($x120 (and W_S2_V2 R_S1_V2)))
 (let (($x3012 (and W_S2_V3 R_S1_V3)))
 (let (($x2283 (and W_S2_V1 R_S1_V1)))
 (let (($x3696 (= DISJ_W_S2_R_S1 (not (or $x2283 $x3012 $x120 $x3007 R_S1_V4)))))
 (let (($x2048 (= DISJ_W_S1_W_S2 (not (or W_S2_V3 (and W_S1_V5 W_S2_V5) W_S1_V4)))))
 (let (($x1792 (not R_E1_V3)))
 (let (($x4945 (not (or R_S2_V3 (and W_S1_V5 R_S2_V5) (and W_S1_V4 R_S2_V4)))))
 (let (($x2720 (= DISJ_W_S1_R_S2 $x4945)))
 (let (($x2985 (not (or R_S1_V3 (and W_S1_V5 R_S1_V5) (and W_S1_V4 R_S1_V4)))))
 (let (($x2940 (= DISJ_W_S1_R_S1 $x2985)))
 (let (($x4803 (not R_S1_V1)))
 (let (($x5952 (and $x4803 DISJ_W_S1_R_S1)))
 (let (($x3255 (and $x2431 DISJ_W_S2_R_S1 DISJ_W_S1_R_S1)))
 (let (($x2103 (or $x3255 $x937 $x5952)))
 (let (($x3898 (not W_S1_V2)))
 (let (($x256 (not W_S1_V1)))
 (let (($x2366 (not R_E1_V1)))
 (let (($x1030 (and DISJ_W_S1_R_E1 $x2366 $x256 $x3898 $x2103 W_S1_V3 W_S2_V4 $x2940 $x2720 $x1792 $x2048 $x3696 $x4661 $x3296 $x1723 $x4832 $x5925)))
 (and $x1030 $x1254 $x5462 $x602 $x3944 $x1284 $x243 $x3431 $x4616 $x496)))))))))))))))))))))))))))))))))))))))))))
(check-sat)
